TCS_Benchmarks/redos_fix/corpus3_output_distinct_749_748_1_0.txt
[ \t]*
([ \t]*)([^\n\t,.]+)
[^\n\t,.]+